100
128
16
20
19
25
48
32
3
4
62
39
58
8
31
16
12
47
20
34
5
29
41
24
44
52
16
40
56
7
32
42
26
10
30
51
30
43
63
34
3
19
15
13
46
22
11
34
10
55
28
33
18
14
22
13
39
39
50
16
17
19
36
40
18
21
50
12
13
13
24
21
60
30
23
26
51
2
21
46
34
53
19
29
51
24
13
53
29
15
18
34
64
30
27
43
57
3
1
43
29
56